unsafe/ReqAck/main.smt2
; SMT 2
(set-info :source "Generated by CBMC 5.7")
(set-option :produce-models true)
(set-logic QF_AUFBV)

; find_symbols
(declare-fun |goto_symex::&92;guard#1| () Bool)
; convert
(define-fun |B0| () Bool |goto_symex::&92;guard#1|)

; convert
(define-fun |B1| () Bool |goto_symex::&92;guard#1|)

; convert
(define-fun |B2| () Bool |goto_symex::&92;guard#1|)

; convert
(define-fun |B3| () Bool (not |goto_symex::&92;guard#1|))

; convert
(define-fun |B4| () Bool (not |goto_symex::&92;guard#1|))

; set_to true (equal)
(define-fun |__CPROVER_dead_object#1| () (_ BitVec 64) (_ bv0 64))

; set_to true (equal)
(define-fun |__CPROVER_deallocated#1| () (_ BitVec 64) (_ bv0 64))

; set_to true (equal)
(define-fun |__CPROVER_malloc_is_new_array#1| () Bool false)

; set_to true (equal)
(define-fun |__CPROVER_malloc_object#1| () (_ BitVec 64) (_ bv0 64))

; set_to true (equal)
(define-fun |__CPROVER_malloc_size#1| () (_ BitVec 64) (_ bv0 64))

; set_to true (equal)
(define-fun |__CPROVER_memory_leak#1| () (_ BitVec 64) (_ bv0 64))

; set_to true (equal)
(define-fun |__CPROVER_next_thread_id#1| () (_ BitVec 64) (_ bv0 64))

; set_to true (equal)
(define-fun |__CPROVER_pipe_count#1| () (_ BitVec 32) (_ bv0 32))

; set_to true (equal)
(define-fun |__CPROVER_rounding_mode!0#1| () (_ BitVec 32) (_ bv0 32))

; set_to true (equal)
(define-fun |__CPROVER_thread_id!0#1| () (_ BitVec 64) (_ bv0 64))

; the following is a substitute for lambda i. x
(declare-fun array_of.0 () (Array (_ BitVec 64) (_ BitVec 1)))
; set_to true (equal)
(define-fun |__CPROVER_threads_exited#1| () (Array (_ BitVec 64) (_ BitVec 1)) array_of.0)

; set_to true (equal)
(define-fun |done#1| () (_ BitVec 32) (_ bv3 32))

; set_to true (equal)
(define-fun |idle#1| () (_ BitVec 32) (_ bv0 32))

; set_to true (equal)
(define-fun |smain#1| () (_ BitVec 8) (_ bv0 8))

; set_to true (equal)
(define-fun |sreqAck#1| () (_ BitVec 8) (_ bv0 8))

; set_to true (equal)
(define-fun |sslave#1| () (_ BitVec 16) (_ bv0 16))

; set_to true (equal)
(define-fun |starting#1| () (_ BitVec 32) (_ bv1 32))

; set_to true (equal)
(define-fun |working#1| () (_ BitVec 32) (_ bv2 32))

; set_to true (equal)
(define-fun |main::1::nd!0@1#2| () (_ BitVec 8) (_ bv1 8))

; set_to true (equal)
(define-fun |smain#2| () (_ BitVec 8) (_ bv1 8))

; find_symbols
(declare-fun |main::1::clock!0@1#1| () (_ BitVec 8))
; set_to true (equal)
(define-fun |reqAck::clock!0@1#1| () (_ BitVec 8) |main::1::clock!0@1#1|)

; set_to true (equal)
(define-fun |reqAck::req!0@1#1| () (_ BitVec 8) (_ bv1 8))

; find_symbols
(declare-fun |main::1::ack!0@1| () (_ BitVec 8))
; set_to true (equal)
(define-fun |reqAck::ack!0@1#1| () (_ BitVec 64) (concat (_ bv2 8) (_ bv0 56)))

; set_to true (equal)
(define-fun |slave::clock!0@1#1| () (_ BitVec 8) |reqAck::clock!0@1#1|)

; find_symbols
(declare-fun |reqAck::1::start!0@1#1| () (_ BitVec 8))
; set_to true (equal)
(define-fun |slave::start!0@1#1| () (_ BitVec 8) |reqAck::1::start!0@1#1|)

; find_symbols
(declare-fun |reqAck::1::ready!0@1| () (_ BitVec 8))
; set_to true (equal)
(define-fun |slave::ready!0@1#1| () (_ BitVec 64) (concat (_ bv3 8) (_ bv0 56)))

; set_to true
(assert (= |goto_symex::&92;guard#1| (not (= |slave::start!0@1#1| (_ bv0 8)))))

; set_to true (equal)
(define-fun |sslave#2| () (_ BitVec 16) (_ bv0 16))

; set_to true (equal)
(define-fun |sslave#3| () (_ BitVec 16) (_ bv0 16))

; set_to true (equal)
(define-fun |sslave#4| () (_ BitVec 16) (_ bv1 16))

; set_to true (equal)
(define-fun |sslave#5| () (_ BitVec 16) (ite |goto_symex::&92;guard#1| (_ bv0 16) (_ bv1 16)))

; set_to true (equal)
(define-fun |reqAck::1::ready!0@1#2| () (_ BitVec 8) (ite (not (= (= ((_ zero_extend 16) ((_ extract 15 0) |sslave#5|)) (_ bv1023 32)) false))  (_ bv1 8) (_ bv0 8)))

; set_to true (equal)
(define-fun |sreqAck#2| () (_ BitVec 8) (_ bv1 8))

; set_to true (equal)
(define-fun |reqAck::ack!0@1#2| () (_ BitVec 64) (_ bv0 64))

; set_to true (equal)
(define-fun |reqAck::1::start!0@1#2| () (_ BitVec 8) (_ bv1 8))

; convert
(define-fun |B5| () Bool (= |main::1::clock!0@1#1| |main::1::clock!0@1#1|))

; find_symbols
(declare-fun |main::1::ack!0@1#1| () (_ BitVec 8))
; convert
(define-fun |B6| () Bool (= |main::1::ack!0@1#1| |main::1::ack!0@1#1|))

; find_symbols
(declare-fun |main::1::nd!0@1#1| () (_ BitVec 8))
; convert
(define-fun |B7| () Bool (= |main::1::nd!0@1#1| |main::1::nd!0@1#1|))

; convert
(define-fun |B8| () Bool (= |reqAck::1::start!0@1#1| |reqAck::1::start!0@1#1|))

; find_symbols
(declare-fun |reqAck::1::ready!0@1#1| () (_ BitVec 8))
; convert
(define-fun |B9| () Bool (= |reqAck::1::ready!0@1#1| |reqAck::1::ready!0@1#1|))

; set_to false
(assert (not (= ((_ zero_extend 24) |main::1::ack!0@1#1|) (_ bv1 32))))

; convert
(define-fun |B10| () Bool (= |slave::start!0@1#1| (_ bv0 8)))

(check-sat)

(get-value (|B0|))
(get-value (|B1|))
(get-value (|B10|))
(get-value (|B2|))
(get-value (|B3|))
(get-value (|B4|))
(get-value (|B5|))
(get-value (|B6|))
(get-value (|B7|))
(get-value (|B8|))
(get-value (|B9|))
(get-value (|__CPROVER_dead_object#1|))
(get-value (|__CPROVER_deallocated#1|))
(get-value (|__CPROVER_malloc_is_new_array#1|))
(get-value (|__CPROVER_malloc_object#1|))
(get-value (|__CPROVER_malloc_size#1|))
(get-value (|__CPROVER_memory_leak#1|))
(get-value (|__CPROVER_next_thread_id#1|))
(get-value (|__CPROVER_pipe_count#1|))
(get-value (|__CPROVER_rounding_mode!0#1|))
(get-value (|__CPROVER_thread_id!0#1|))
(get-value (|__CPROVER_threads_exited#1|))
(get-value (|done#1|))
(get-value (|goto_symex::&92;guard#1|))
(get-value (|idle#1|))
(get-value (|main::1::ack!0@1|))
(get-value (|main::1::ack!0@1#1|))
(get-value (|main::1::clock!0@1#1|))
(get-value (|main::1::nd!0@1#1|))
(get-value (|main::1::nd!0@1#2|))
(get-value (|reqAck::1::ready!0@1|))
(get-value (|reqAck::1::ready!0@1#1|))
(get-value (|reqAck::1::ready!0@1#2|))
(get-value (|reqAck::1::start!0@1#1|))
(get-value (|reqAck::1::start!0@1#2|))
(get-value (|reqAck::ack!0@1#1|))
(get-value (|reqAck::ack!0@1#2|))
(get-value (|reqAck::clock!0@1#1|))
(get-value (|reqAck::req!0@1#1|))
(get-value (|slave::clock!0@1#1|))
(get-value (|slave::ready!0@1#1|))
(get-value (|slave::start!0@1#1|))
(get-value (|smain#1|))
(get-value (|smain#2|))
(get-value (|sreqAck#1|))
(get-value (|sreqAck#2|))
(get-value (|sslave#1|))
(get-value (|sslave#2|))
(get-value (|sslave#3|))
(get-value (|sslave#4|))
(get-value (|sslave#5|))
(get-value (|starting#1|))
(get-value (|working#1|))

(exit)
; end of SMT2 file
